19
11
1 12 14 0 2 6 9 17
0 10 6 5 8 3 14 15 7 11 18 2 4 13 16 12
11 9 12 17 18 4 16 0 15 14 7 1 5 13
0 12 14
7 8 6 2 16 5 9 17 12 11 10 4 14 18 13 1 15 0 3
0 4 9 6 11 3 18 13 16 8 15 2 10 12 5 1 14 7
5 10 1 14 7 9 8 6 16 11 0 18 15
14 18 3 17 1 11 10 5 13 0 2
7 18 0 11 9 1 10 12 3 6 17 8 2 15 5
16
2 16 9 18 10 7
